p cnf 72 265
-1 -2 -3 0
1 2 -3 0
-1 2 3 0
1 -2 3 0
-5 3 0
-5 4 0
-3 -4 5 0
6 -5 0
6 2 0
5 -2 -6 0
7 -1 0
7 6 0
1 -6 -7 0
-8 7 0
-8 2 0
-7 -2 8 0
-9 8 0
-9 -8 0
10 -11 -12 0
-10 11 -12 0
10 11 12 0
-10 -11 12 0
9 -12 -13 0
-9 12 -13 0
9 12 13 0
-9 -12 13 0
13 -10 -14 0
-13 10 -14 0
13 10 14 0
-13 -10 14 0
2 12 -15 0
-2 -12 -15 0
2 -12 15 0
-2 12 15 0
-17 -16 0
-17 13 0
16 -13 17 0
-18 -15 0
-18 17 0
15 -17 18 0
19 -16 0
19 -10 0
16 10 -19 0
-11 -19 -20 0
11 19 -20 0
-11 19 20 0
11 -19 20 0
21 -18 0
21 -20 0
18 20 -21 0
23 22 0
23 16 0
-22 -16 -23 0
-24 -9 0
-24 1 0
9 -1 24 0
25 -8 0
25 24 0
8 -24 -25 0
-26 2 0
-26 -2 0
-27 -24 0
-27 26 0
24 -26 27 0
-28 -27 0
-28 25 0
27 -25 28 0
-29 25 0
-29 -28 0
-25 28 29 0
30 23 0
30 29 0
-23 -29 -30 0
31 -30 0
31 1 0
30 -1 -31 0
-32 -21 0
-32 31 0
21 -31 32 0
33 14 0
33 32 0
-14 -32 -33 0
35 -1 0
35 34 0
1 -34 -35 0
-22 -3 -37 0
22 3 -37 0
-22 3 37 0
22 -3 37 0
38 -36 0
38 37 0
36 -37 -38 0
-12 -38 -39 0
12 38 -39 0
-12 38 39 0
12 -38 39 0
-35 39 -40 0
35 -39 -40 0
-35 -39 40 0
35 39 40 0
-41 -9 0
-41 -15 0
9 15 41 0
42 -6 0
42 6 0
43 -26 0
43 -42 0
26 42 -43 0
44 36 0
44 -22 0
-36 22 -44 0
44 -23 -45 0
-44 23 -45 0
44 23 45 0
-44 -23 45 0
46 43 0
46 45 0
-43 -45 -46 0
-41 46 -47 0
41 -46 -47 0
-41 -46 47 0
41 46 47 0
48 40 0
48 -47 0
-40 47 -48 0
33 48 -49 0
-33 -48 -49 0
33 -48 49 0
-33 48 49 0
-12 36 -50 0
12 -36 -50 0
-12 -36 50 0
12 36 50 0
-51 -42 0
-51 38 0
42 -38 51 0
-52 -2 0
-52 -7 0
2 7 52 0
-53 52 0
-53 -17 0
-52 17 53 0
-51 53 -54 0
51 -53 -54 0
-51 -53 54 0
51 53 54 0
55 50 0
55 54 0
-50 -54 -55 0
-56 26 0
-56 37 0
-26 -37 56 0
57 -56 0
57 15 0
56 -15 -57 0
58 1 0
58 57 0
-1 -57 -58 0
59 -38 0
59 -42 0
38 42 -59 0
-60 -58 0
-60 -59 0
58 59 60 0
6 -36 -61 0
-6 36 -61 0
6 36 61 0
-6 -36 61 0
-61 -62 -63 0
61 62 -63 0
-61 62 63 0
61 -62 63 0
-64 60 0
-64 -63 0
-60 63 64 0
20 10 -65 0
-20 -10 -65 0
20 -10 65 0
-20 10 65 0
-64 65 -66 0
64 -65 -66 0
-64 -65 66 0
64 65 66 0
55 66 -67 0
-55 -66 -67 0
55 -66 67 0
-55 66 67 0
68 -49 0
68 -67 0
49 67 -68 0
-69 -8 0
-69 44 0
8 -44 69 0
70 27 0
70 9 0
-27 -9 -70 0
69 70 -71 0
-69 -70 -71 0
69 -70 71 0
-69 70 71 0
72 68 0
72 71 0
-68 -71 -72 0
57 -60 -5 61 0
5 33 30 0
-31 29 0
-51 -32 -42 -17 40 0
-70 23 47 26 -72 0
-31 -40 60 0
-9 14 55 43 42 0
45 31 68 0
-62 71 39 41 40 0
63 45 34 -10 0
-50 65 -9 -35 0
-11 53 21 -35 0
27 25 0
65 37 -51 -29 0
-62 -10 66 -59 0
-19 -46 0
19 28 -68 8 67 0
72 -41 64 15 0
-70 -23 -22 0
15 28 33 -69 -67 0
56 45 0
-4 -12 0
-41 63 0
-51 -6 48 0
-30 -2 -61 58 18 -35 0
-60 -52 -19 0
48 -66 0
28 44 -24 0
-18 13 56 0
-28 -23 0
-19 -24 66 1 0
-26 -70 -49 0
61 -8 0
21 -40 28 3 0
44 -53 0
26 -1 -70 0
31 -71 -25 -58 0
57 -9 59 29 33 0
47 -70 34 -65 -11 -21 0
-40 -39 33 71 56 -5 0
-19 57 32 30 -21 0
-47 -5 61 46 11 0
14 -69 72 0
-57 51 -22 0
24 -54 -72 -41 0
-63 -38 0
30 -68 11 -43 0
26 -9 -8 21 -69 -44 0
-29 72 0
-66 64 68 0
24 41 5 -27 0
13 -67 -59 38 0
16 52 72 0
64 -26 67 -6 71 0
-8 20 0
62 19 42 66 3 0
70 50 0
-3 24 42 0
34 -68 -17 -45 -56 -16 0
8 -71 12 4 0
-1 -53 67 -11 0
72 0
